
Gurobi 10.0.1 (linux64) logging started Wed May 31 15:20:28 2023

Set parameter LogFile to value "logFiles/A-2L-B/A-2L-6U-55F-15V-365D-basic.log"
Gurobi Optimizer version 10.0.1 build v10.0.1rc0 (linux64)

CPU model: Intel(R) Xeon(R) Gold 5115 CPU @ 2.40GHz, instruction set [SSE2|AVX|AVX2|AVX512]
Thread count: 20 physical cores, 40 logical processors, using up to 20 threads

Optimize a model with 158969 rows, 1575925 columns and 11531842 nonzeros
Model fingerprint: 0x1684d217
Variable types: 3294 continuous, 1572631 integer (1572631 binary)
Coefficient statistics:
  Matrix range     [1e+00, 2e+05]
  Objective range  [4e+01, 3e+07]
  Bounds range     [1e+00, 1e+00]
  RHS range        [1e+00, 8e+06]
Presolve removed 107416 rows and 77324 columns (presolve time = 5s) ...
Presolve removed 109311 rows and 77326 columns (presolve time = 10s) ...
Presolve removed 109311 rows and 77326 columns (presolve time = 15s) ...
Presolve removed 109311 rows and 77331 columns (presolve time = 20s) ...
Presolve removed 109311 rows and 77331 columns (presolve time = 25s) ...
Presolve removed 109311 rows and 77331 columns (presolve time = 30s) ...
Presolve removed 109311 rows and 77331 columns (presolve time = 35s) ...
Presolve removed 109199 rows and 77219 columns
Presolve time: 37.47s
Presolved: 49770 rows, 1498706 columns, 8762873 nonzeros
Variable types: 3324 continuous, 1495382 integer (1495329 binary)
Deterministic concurrent LP optimizer: primal simplex, dual simplex, and barrier
Showing barrier log only...

Root barrier log...

Elapsed ordering time = 5s
Ordering time: 5.28s

Barrier statistics:
 AA' NZ     : 3.990e+06
 Factor NZ  : 4.734e+07 (roughly 1.0 GB of memory)
 Factor Ops : 2.158e+11 (roughly 1 second per iteration)
 Threads    : 17

Barrier performed 0 iterations in 60.06 seconds (75.92 work units)
Time limit reached



Root relaxation: time limit, 0 iterations, 16.08 seconds (12.10 work units)

Explored 1 nodes (0 simplex iterations) in 60.12 seconds (68.02 work units)
Thread count was 20 (of 40 available processors)

Solution count 0

Time limit reached
Best objective -, best bound 7.979939905941e+12, gap -
IIS computation: initial model status unknown, solving to determine model status
Presolve removed 107416 rows and 77329 columns (presolve time = 5s) ...
Presolve removed 109311 rows and 77331 columns (presolve time = 10s) ...
Presolve removed 109311 rows and 77331 columns (presolve time = 15s) ...
Presolve removed 109311 rows and 77331 columns (presolve time = 20s) ...
Presolve removed 109311 rows and 77331 columns (presolve time = 25s) ...
Presolve removed 109311 rows and 77331 columns (presolve time = 30s) ...
Presolve removed 109311 rows and 77331 columns (presolve time = 35s) ...
Presolve removed 109199 rows and 77219 columns
Presolve time: 37.67s
Presolved: 49770 rows, 1498706 columns, 8762873 nonzeros
Variable types: 3324 continuous, 1495382 integer (1495329 binary)
Deterministic concurrent LP optimizer: primal simplex, dual simplex, and barrier
Showing barrier log only...

Root barrier log...

Ordering time: 4.78s

Barrier performed 0 iterations in 60.00 seconds (75.86 work units)
Time limit reached



Root relaxation: time limit, 0 iterations, 13.68 seconds (12.46 work units)

Explored 1 nodes (0 simplex iterations) in 60.05 seconds (69.51 work units)
Thread count was 20 (of 40 available processors)

Solution count 0

Time limit reached
Best objective -, best bound -0.000000000000e+00, gap -
IIS runtime: 60.09 seconds (69.51 work units)
